************************************************************************
file with basedata            : mm6_.bas
initial value random generator: 561347072
************************************************************************
projects                      :  1
jobs (incl. supersource/sink ):  12
horizon                       :  72
RESOURCES
  - renewable                 :  2   R
  - nonrenewable              :  2   N
  - doubly constrained        :  0   D
************************************************************************
PROJECT INFORMATION:
pronr.  #jobs rel.date duedate tardcost  MPM-Time
    1     10      0       14        2       14
************************************************************************
PRECEDENCE RELATIONS:
jobnr.    #modes  #successors   successors
   0        1          3           1   2   3
   1        3          1           8
   2        3          3           4   6  10
   3        3          2           5   7
   4        3          2           7   8
   5        3          2           8  10
   6        3          1           7
   7        3          1           9
   8        3          1          11
   9        3          1          11
  10        3          1          11
  11        1          0        
************************************************************************
REQUESTS/DURATIONS:
jobnr. mode duration  R 1  R 2  R 3  R 4  E(W 1)  E(W 2)
------------------------------------------------------------------------
  0      1     0       0    0    0    0     0       0
  1      1     1       0    9    4    8     9      12
  2      1     1       0    2    6    4     2      10
  3      1     3       0    1    7    6     6      39
  4      1     3      10    0   10   10    30      60
  5      1     5       0    5    7    7    25      70
  6      1     2       1    0    4    7     4      22
  7      1     6       0    6    7    9    36      96
  8      1     6       6    0    4    2    36      36
  9      1     2       0    6    9    9    12      36
 10      1     2       0    8    8    7    16      30
 11      1     0       0    0    0    0     0       0
************************************************************************
RESOURCEAVAILABILITIES:
  R 1  R 2
   14   111
************************************************************************
RESOURCE LIMITS:
jobnr.  l(R 1)  u(R 1)  l(R 2)  u(R 2)
------------------------------------------------------------------------
  0        0       0       0       0
  1        5       9       6      12
  2        1       2       5      10
  3        1       2       7      13
  4        5      10      10      20
  5        3       5       8      14
  6        1       2       6      11
  7        3       6       9      16
  8        3       6       3       6
  9        3       6      10      18
 10        4       8       8      15
 11        0       0       0       0
************************************************************************
SCENARIOS:
------------------------------------------------------------------------
RESOURCE k = 1
s = 1: (0, 11, 3, 5, 46, 22, 4, 45, 60, 13, 19, 0)
s = 2: (0, 13, 3, 10, 27, 27, 6, 58, 34, 14, 17, 0)
s = 3: (0, 8, 2, 7, 28, 22, 6, 30, 27, 15, 19, 0)
s = 4: (0, 6, 4, 9, 30, 16, 4, 29, 45, 8, 15, 0)
s = 5: (0, 16, 2, 4, 31, 18, 3, 41, 39, 11, 12, 0)
s = 6: (0, 6, 3, 5, 30, 34, 4, 33, 27, 15, 20, 0)
s = 7: (0, 12, 2, 7, 31, 40, 4, 46, 45, 10, 10, 0)
s = 8: (0, 8, 3, 6, 42, 19, 5, 35, 34, 8, 18, 0)
s = 9: (0, 6, 2, 8, 33, 36, 5, 57, 31, 21, 17, 0)
s = 10: (0, 7, 3, 5, 42, 30, 6, 25, 34, 14, 9, 0)
s = 11: (0, 7, 3, 5, 25, 36, 5, 21, 29, 9, 16, 0)
s = 12: (0, 10, 2, 4, 21, 25, 5, 52, 49, 16, 19, 0)
s = 13: (0, 9, 3, 4, 30, 25, 3, 28, 35, 8, 20, 0)
s = 14: (0, 8, 3, 6, 43, 35, 3, 54, 47, 11, 18, 0)
s = 15: (0, 13, 3, 5, 32, 26, 3, 59, 39, 13, 17, 0)
s = 16: (0, 10, 4, 5, 25, 19, 3, 50, 28, 14, 13, 0)
s = 17: (0, 6, 2, 8, 28, 16, 4, 60, 34, 23, 21, 0)
s = 18: (0, 8, 2, 10, 32, 15, 5, 23, 38, 17, 20, 0)
s = 19: (0, 9, 3, 8, 24, 24, 4, 36, 34, 13, 27, 0)
s = 20: (0, 10, 2, 8, 19, 25, 6, 44, 25, 12, 16, 0)
s = 21: (0, 5, 2, 5, 36, 32, 4, 40, 43, 14, 18, 0)
s = 22: (0, 10, 2, 6, 37, 28, 4, 44, 28, 19, 15, 0)
s = 23: (0, 6, 2, 7, 33, 26, 3, 21, 47, 8, 13, 0)
s = 24: (0, 6, 2, 5, 40, 19, 4, 25, 37, 8, 16, 0)
s = 25: (0, 12, 2, 7, 44, 38, 4, 30, 39, 9, 11, 0)
s = 26: (0, 7, 3, 7, 29, 32, 5, 29, 41, 9, 16, 0)
s = 27: (0, 8, 3, 9, 20, 25, 4, 32, 34, 11, 9, 0)
s = 28: (0, 12, 2, 5, 23, 19, 6, 35, 40, 7, 18, 0)
s = 29: (0, 8, 2, 4, 39, 32, 4, 21, 26, 10, 13, 0)
s = 30: (0, 7, 3, 7, 18, 32, 4, 42, 44, 14, 11, 0)
s = 31: (0, 7, 3, 9, 46, 42, 4, 40, 27, 11, 22, 0)
s = 32: (0, 5, 2, 6, 23, 21, 4, 32, 39, 9, 24, 0)
s = 33: (0, 10, 3, 6, 19, 18, 4, 28, 33, 10, 18, 0)
s = 34: (0, 8, 3, 7, 43, 26, 3, 47, 29, 10, 10, 0)
s = 35: (0, 9, 2, 6, 27, 24, 6, 24, 46, 12, 24, 0)
s = 36: (0, 9, 2, 5, 28, 25, 5, 40, 25, 9, 13, 0)
s = 37: (0, 8, 2, 10, 31, 21, 5, 38, 40, 15, 15, 0)
s = 38: (0, 7, 2, 6, 30, 31, 4, 39, 33, 8, 15, 0)
s = 39: (0, 7, 3, 8, 23, 34, 6, 27, 50, 9, 10, 0)
s = 40: (0, 10, 3, 8, 48, 28, 3, 25, 43, 11, 11, 0)
s = 41: (0, 10, 2, 5, 18, 35, 5, 61, 46, 12, 18, 0)
s = 42: (0, 9, 2, 5, 20, 26, 6, 27, 34, 11, 16, 0)
s = 43: (0, 9, 3, 7, 26, 25, 3, 28, 37, 13, 16, 0)
s = 44: (0, 8, 4, 5, 28, 17, 4, 38, 23, 11, 11, 0)
s = 45: (0, 11, 2, 4, 41, 30, 4, 25, 28, 8, 19, 0)
s = 46: (0, 8, 2, 7, 23, 27, 3, 29, 39, 12, 22, 0)
s = 47: (0, 12, 2, 7, 19, 24, 3, 29, 37, 13, 26, 0)
s = 48: (0, 6, 2, 7, 28, 21, 3, 38, 24, 16, 18, 0)
s = 49: (0, 11, 2, 6, 36, 16, 7, 22, 29, 13, 21, 0)
s = 50: (0, 9, 2, 7, 21, 19, 5, 51, 31, 14, 16, 0)
s = 51: (0, 12, 2, 10, 30, 19, 5, 31, 48, 18, 24, 0)
s = 52: (0, 10, 2, 7, 22, 22, 6, 28, 40, 11, 13, 0)
s = 53: (0, 6, 2, 6, 34, 17, 3, 36, 29, 17, 23, 0)
s = 54: (0, 6, 3, 10, 52, 14, 3, 49, 59, 10, 24, 0)
s = 55: (0, 11, 3, 6, 27, 38, 3, 44, 25, 11, 32, 0)
s = 56: (0, 11, 3, 8, 34, 27, 4, 36, 30, 19, 12, 0)
s = 57: (0, 7, 2, 5, 26, 24, 4, 30, 32, 17, 19, 0)
s = 58: (0, 7, 2, 5, 29, 29, 3, 26, 60, 14, 20, 0)
s = 59: (0, 9, 2, 8, 39, 32, 4, 37, 55, 13, 13, 0)
s = 60: (0, 11, 4, 7, 32, 15, 4, 29, 22, 12, 10, 0)
s = 61: (0, 7, 3, 9, 36, 33, 3, 50, 22, 11, 17, 0)
s = 62: (0, 8, 4, 6, 20, 19, 6, 55, 29, 8, 15, 0)
s = 63: (0, 8, 2, 7, 29, 25, 5, 59, 41, 11, 16, 0)
s = 64: (0, 14, 3, 7, 32, 34, 4, 31, 44, 14, 21, 0)
s = 65: (0, 11, 2, 4, 17, 21, 5, 23, 40, 7, 21, 0)
s = 66: (0, 8, 2, 6, 47, 30, 6, 37, 28, 14, 22, 0)
s = 67: (0, 13, 2, 8, 30, 20, 5, 38, 56, 15, 19, 0)
s = 68: (0, 6, 2, 8, 39, 29, 7, 29, 65, 7, 9, 0)
s = 69: (0, 10, 2, 4, 23, 17, 4, 27, 49, 16, 23, 0)
s = 70: (0, 8, 3, 5, 40, 22, 4, 31, 65, 11, 15, 0)
s = 71: (0, 9, 2, 10, 53, 28, 3, 42, 23, 12, 21, 0)
s = 72: (0, 7, 3, 4, 41, 35, 6, 25, 45, 12, 18, 0)
s = 73: (0, 9, 2, 6, 26, 35, 4, 33, 34, 13, 18, 0)
s = 74: (0, 6, 2, 7, 28, 18, 5, 43, 63, 20, 20, 0)
s = 75: (0, 7, 2, 6, 34, 34, 4, 32, 38, 11, 13, 0)
s = 76: (0, 9, 2, 8, 29, 44, 6, 39, 46, 20, 18, 0)
s = 77: (0, 13, 2, 5, 31, 20, 6, 30, 42, 15, 9, 0)
s = 78: (0, 8, 3, 5, 48, 19, 5, 36, 46, 13, 23, 0)
s = 79: (0, 9, 2, 5, 47, 22, 3, 58, 45, 10, 21, 0)
s = 80: (0, 8, 3, 6, 29, 21, 3, 57, 42, 7, 20, 0)
s = 81: (0, 11, 3, 5, 28, 25, 4, 38, 47, 18, 31, 0)
s = 82: (0, 9, 2, 4, 41, 18, 4, 25, 20, 13, 13, 0)
s = 83: (0, 15, 2, 10, 37, 27, 4, 32, 28, 14, 17, 0)
s = 84: (0, 7, 2, 7, 30, 28, 8, 41, 36, 10, 14, 0)
s = 85: (0, 8, 2, 5, 30, 27, 4, 21, 50, 12, 16, 0)
s = 86: (0, 10, 3, 5, 36, 24, 5, 27, 41, 10, 12, 0)
s = 87: (0, 5, 3, 4, 24, 14, 6, 46, 61, 11, 19, 0)
s = 88: (0, 18, 2, 6, 34, 22, 5, 36, 20, 18, 12, 0)
s = 89: (0, 11, 2, 8, 26, 18, 3, 29, 35, 9, 17, 0)
s = 90: (0, 8, 3, 8, 34, 14, 4, 30, 38, 16, 17, 0)
s = 91: (0, 8, 2, 7, 18, 35, 6, 49, 46, 9, 19, 0)
s = 92: (0, 10, 3, 9, 30, 30, 4, 35, 32, 8, 17, 0)
s = 93: (0, 14, 2, 6, 36, 32, 3, 56, 39, 19, 17, 0)
s = 94: (0, 13, 3, 7, 28, 28, 4, 27, 27, 8, 21, 0)
s = 95: (0, 7, 2, 9, 33, 33, 5, 40, 44, 11, 11, 0)
s = 96: (0, 9, 3, 9, 37, 38, 5, 45, 31, 13, 14, 0)
s = 97: (0, 12, 2, 4, 27, 24, 6, 31, 33, 11, 10, 0)
s = 98: (0, 7, 3, 5, 33, 38, 3, 25, 23, 11, 12, 0)
s = 99: (0, 8, 2, 5, 32, 17, 4, 32, 32, 14, 14, 0)
s = 100: (0, 9, 2, 10, 41, 32, 7, 47, 22, 16, 11, 0)
s = 101: (0, 7, 3, 8, 43, 17, 5, 36, 34, 10, 10, 0)
s = 102: (0, 7, 2, 8, 37, 19, 4, 26, 52, 13, 16, 0)
s = 103: (0, 9, 3, 9, 38, 15, 4, 37, 30, 11, 25, 0)
s = 104: (0, 8, 2, 9, 40, 15, 4, 28, 26, 13, 24, 0)
s = 105: (0, 10, 2, 9, 29, 19, 4, 69, 20, 11, 19, 0)
s = 106: (0, 13, 2, 6, 31, 26, 3, 34, 40, 9, 25, 0)
s = 107: (0, 6, 3, 6, 19, 17, 3, 46, 48, 19, 24, 0)
s = 108: (0, 9, 3, 11, 21, 17, 6, 41, 43, 9, 16, 0)
s = 109: (0, 11, 2, 9, 31, 15, 4, 20, 26, 16, 12, 0)
s = 110: (0, 12, 2, 11, 29, 29, 4, 40, 32, 18, 26, 0)
s = 111: (0, 7, 3, 4, 46, 22, 7, 41, 35, 9, 19, 0)
s = 112: (0, 6, 3, 6, 37, 21, 4, 40, 27, 20, 14, 0)
s = 113: (0, 7, 3, 5, 29, 28, 4, 30, 30, 12, 21, 0)
s = 114: (0, 7, 3, 4, 39, 32, 4, 59, 32, 14, 16, 0)
s = 115: (0, 14, 2, 7, 45, 20, 8, 32, 44, 12, 12, 0)
s = 116: (0, 7, 2, 7, 28, 19, 6, 39, 31, 11, 9, 0)
s = 117: (0, 6, 2, 5, 27, 38, 6, 41, 29, 17, 15, 0)
s = 118: (0, 9, 2, 5, 27, 28, 3, 43, 34, 16, 16, 0)
s = 119: (0, 11, 2, 7, 32, 13, 3, 27, 27, 16, 17, 0)
s = 120: (0, 6, 3, 5, 42, 20, 5, 53, 24, 16, 13, 0)
s = 121: (0, 14, 3, 6, 49, 29, 4, 40, 26, 11, 10, 0)
s = 122: (0, 10, 3, 5, 45, 28, 4, 24, 50, 9, 11, 0)
s = 123: (0, 12, 2, 7, 26, 17, 3, 45, 31, 10, 21, 0)
s = 124: (0, 11, 2, 5, 27, 24, 4, 30, 27, 14, 10, 0)
s = 125: (0, 7, 3, 5, 37, 22, 4, 30, 39, 16, 15, 0)
s = 126: (0, 11, 2, 8, 37, 27, 4, 34, 49, 9, 17, 0)
s = 127: (0, 6, 3, 4, 22, 25, 4, 62, 41, 10, 15, 0)
s = 128: (0, 7, 2, 6, 36, 16, 6, 44, 27, 9, 17, 0)
s = 129: (0, 10, 4, 6, 30, 17, 7, 48, 27, 12, 26, 0)
s = 130: (0, 8, 2, 5, 38, 23, 6, 31, 27, 15, 21, 0)
s = 131: (0, 6, 2, 11, 43, 38, 4, 48, 52, 11, 25, 0)
s = 132: (0, 13, 3, 8, 36, 21, 4, 21, 49, 10, 16, 0)
s = 133: (0, 8, 3, 5, 33, 18, 6, 44, 32, 16, 10, 0)
s = 134: (0, 11, 4, 7, 30, 32, 5, 52, 28, 9, 13, 0)
s = 135: (0, 8, 2, 7, 25, 22, 5, 41, 42, 15, 11, 0)
s = 136: (0, 6, 3, 4, 21, 14, 6, 25, 55, 15, 14, 0)
s = 137: (0, 7, 3, 9, 23, 19, 6, 53, 35, 9, 15, 0)
s = 138: (0, 7, 3, 5, 38, 29, 6, 28, 27, 7, 13, 0)
s = 139: (0, 12, 2, 6, 39, 26, 5, 28, 24, 19, 13, 0)
s = 140: (0, 8, 3, 8, 30, 21, 5, 24, 35, 12, 15, 0)
s = 141: (0, 13, 2, 5, 24, 21, 5, 40, 27, 11, 19, 0)
s = 142: (0, 12, 3, 5, 23, 35, 5, 41, 28, 10, 16, 0)
s = 143: (0, 13, 3, 5, 28, 45, 4, 38, 45, 8, 21, 0)
s = 144: (0, 7, 3, 5, 37, 33, 3, 36, 42, 11, 10, 0)
s = 145: (0, 8, 2, 7, 18, 15, 6, 25, 42, 11, 11, 0)
s = 146: (0, 6, 3, 5, 23, 29, 4, 40, 23, 8, 16, 0)
s = 147: (0, 8, 3, 8, 39, 27, 3, 46, 48, 13, 14, 0)
s = 148: (0, 9, 3, 6, 36, 27, 3, 29, 29, 11, 19, 0)
s = 149: (0, 6, 3, 5, 37, 22, 4, 35, 33, 14, 13, 0)
s = 150: (0, 15, 3, 5, 31, 38, 5, 57, 30, 8, 14, 0)
s = 151: (0, 7, 2, 7, 25, 31, 6, 39, 20, 14, 14, 0)
s = 152: (0, 6, 2, 7, 33, 21, 5, 28, 28, 12, 26, 0)
s = 153: (0, 10, 3, 8, 19, 20, 6, 26, 54, 9, 29, 0)
s = 154: (0, 9, 3, 5, 32, 20, 3, 41, 37, 9, 17, 0)
s = 155: (0, 11, 3, 6, 20, 23, 6, 35, 23, 11, 13, 0)
s = 156: (0, 8, 3, 7, 43, 35, 5, 47, 35, 13, 26, 0)
s = 157: (0, 11, 3, 6, 22, 15, 7, 26, 22, 10, 14, 0)
s = 158: (0, 13, 3, 5, 19, 21, 6, 30, 41, 9, 24, 0)
s = 159: (0, 12, 3, 6, 22, 22, 4, 36, 26, 16, 24, 0)
s = 160: (0, 9, 4, 6, 32, 33, 4, 36, 30, 12, 10, 0)
s = 161: (0, 9, 2, 8, 28, 27, 4, 24, 28, 12, 13, 0)
s = 162: (0, 8, 2, 6, 33, 25, 4, 30, 36, 16, 24, 0)
s = 163: (0, 8, 3, 8, 20, 23, 5, 36, 36, 15, 20, 0)
s = 164: (0, 7, 3, 5, 29, 21, 5, 35, 34, 17, 18, 0)
s = 165: (0, 9, 2, 6, 31, 34, 3, 34, 39, 12, 14, 0)
s = 166: (0, 11, 3, 8, 28, 29, 7, 42, 27, 11, 21, 0)
s = 167: (0, 12, 2, 5, 25, 22, 5, 39, 39, 9, 27, 0)
s = 168: (0, 11, 3, 9, 34, 30, 5, 25, 29, 17, 15, 0)
s = 169: (0, 10, 2, 6, 23, 31, 5, 40, 28, 12, 16, 0)
s = 170: (0, 9, 2, 7, 25, 19, 5, 40, 25, 7, 12, 0)
s = 171: (0, 15, 2, 8, 54, 31, 5, 61, 33, 16, 14, 0)
s = 172: (0, 7, 3, 9, 47, 23, 4, 23, 27, 14, 22, 0)
s = 173: (0, 9, 2, 9, 28, 26, 3, 65, 24, 13, 16, 0)
s = 174: (0, 9, 3, 10, 47, 20, 4, 32, 39, 18, 19, 0)
s = 175: (0, 14, 3, 8, 34, 24, 4, 26, 41, 8, 22, 0)
s = 176: (0, 9, 2, 5, 18, 30, 5, 26, 44, 7, 24, 0)
s = 177: (0, 8, 3, 6, 49, 22, 6, 57, 26, 11, 20, 0)
s = 178: (0, 9, 2, 6, 27, 26, 4, 37, 36, 15, 21, 0)
s = 179: (0, 8, 2, 8, 41, 25, 5, 44, 29, 14, 16, 0)
s = 180: (0, 14, 2, 6, 38, 35, 5, 39, 33, 14, 12, 0)
s = 181: (0, 6, 2, 6, 35, 43, 3, 39, 66, 14, 18, 0)
s = 182: (0, 11, 3, 7, 29, 18, 3, 32, 24, 13, 11, 0)
s = 183: (0, 5, 2, 4, 29, 20, 6, 61, 31, 15, 18, 0)
s = 184: (0, 6, 2, 5, 25, 17, 7, 42, 28, 18, 10, 0)
s = 185: (0, 9, 2, 4, 43, 31, 3, 35, 41, 13, 9, 0)
s = 186: (0, 13, 2, 5, 33, 31, 3, 31, 25, 14, 15, 0)
s = 187: (0, 7, 3, 5, 31, 41, 5, 33, 40, 12, 25, 0)
s = 188: (0, 10, 4, 12, 30, 20, 4, 28, 44, 8, 28, 0)
s = 189: (0, 11, 2, 6, 31, 29, 4, 34, 35, 16, 17, 0)
s = 190: (0, 5, 2, 8, 37, 21, 5, 30, 34, 12, 13, 0)
s = 191: (0, 13, 2, 7, 32, 18, 3, 36, 59, 10, 16, 0)
s = 192: (0, 8, 2, 5, 19, 19, 7, 39, 51, 10, 23, 0)
s = 193: (0, 9, 2, 5, 32, 23, 5, 48, 35, 18, 22, 0)
s = 194: (0, 11, 3, 7, 33, 26, 4, 47, 23, 14, 13, 0)
s = 195: (0, 6, 2, 10, 27, 32, 5, 31, 30, 14, 13, 0)
s = 196: (0, 9, 3, 5, 37, 33, 3, 36, 35, 20, 14, 0)
s = 197: (0, 13, 2, 10, 24, 15, 3, 31, 38, 11, 15, 0)
s = 198: (0, 10, 3, 5, 20, 21, 5, 23, 43, 20, 17, 0)
s = 199: (0, 10, 2, 7, 26, 29, 5, 33, 42, 8, 17, 0)
s = 200: (0, 6, 2, 8, 44, 34, 4, 28, 25, 13, 11, 0)
------------------------------------------------------------------------
RESOURCE k = 2
s = 1: (0, 15, 13, 27, 92, 62, 21, 120, 60, 39, 35, 0)
s = 2: (0, 17, 12, 60, 53, 76, 28, 153, 34, 42, 32, 0)
s = 3: (0, 11, 7, 40, 56, 61, 29, 79, 27, 45, 35, 0)
s = 4: (0, 8, 16, 58, 60, 45, 19, 77, 45, 23, 29, 0)
s = 5: (0, 21, 10, 24, 61, 48, 17, 108, 39, 31, 21, 0)
s = 6: (0, 8, 11, 28, 59, 94, 18, 86, 27, 45, 37, 0)
s = 7: (0, 16, 7, 41, 62, 110, 20, 122, 45, 29, 18, 0)
s = 8: (0, 10, 13, 37, 84, 52, 28, 92, 34, 23, 34, 0)
s = 9: (0, 7, 9, 49, 66, 100, 24, 151, 31, 61, 32, 0)
s = 10: (0, 10, 15, 29, 83, 83, 28, 67, 34, 42, 16, 0)
s = 11: (0, 9, 11, 33, 49, 99, 27, 56, 29, 25, 30, 0)
s = 12: (0, 13, 10, 26, 41, 69, 23, 137, 49, 46, 35, 0)
s = 13: (0, 12, 13, 22, 59, 68, 17, 73, 35, 23, 36, 0)
s = 14: (0, 10, 13, 36, 85, 98, 16, 142, 47, 33, 34, 0)
s = 15: (0, 17, 11, 28, 64, 72, 16, 157, 39, 38, 32, 0)
s = 16: (0, 13, 17, 31, 50, 53, 17, 133, 28, 42, 24, 0)
s = 17: (0, 8, 7, 50, 55, 44, 19, 160, 34, 69, 38, 0)
s = 18: (0, 11, 10, 64, 64, 41, 27, 59, 38, 51, 37, 0)
s = 19: (0, 12, 14, 50, 47, 68, 18, 96, 34, 38, 51, 0)
s = 20: (0, 13, 10, 46, 38, 69, 32, 116, 25, 36, 30, 0)
s = 21: (0, 7, 10, 31, 71, 90, 19, 106, 43, 41, 34, 0)
s = 22: (0, 14, 6, 37, 74, 78, 17, 118, 28, 55, 28, 0)
s = 23: (0, 8, 6, 44, 65, 72, 14, 56, 47, 22, 23, 0)
s = 24: (0, 8, 9, 27, 79, 52, 19, 65, 37, 24, 29, 0)
s = 25: (0, 15, 8, 46, 88, 105, 18, 79, 39, 27, 20, 0)
s = 26: (0, 10, 11, 43, 58, 88, 26, 75, 41, 27, 29, 0)
s = 27: (0, 10, 11, 53, 39, 70, 19, 84, 34, 32, 17, 0)
s = 28: (0, 16, 9, 29, 45, 53, 29, 93, 40, 21, 33, 0)
s = 29: (0, 10, 8, 21, 77, 90, 22, 55, 26, 30, 25, 0)
s = 30: (0, 9, 11, 41, 35, 88, 21, 110, 44, 40, 21, 0)
s = 31: (0, 9, 12, 56, 92, 115, 21, 106, 27, 31, 40, 0)
s = 32: (0, 7, 8, 36, 46, 58, 18, 86, 39, 27, 45, 0)
s = 33: (0, 14, 13, 39, 37, 49, 19, 75, 33, 30, 34, 0)
s = 34: (0, 11, 12, 45, 85, 71, 14, 125, 29, 29, 19, 0)
s = 35: (0, 12, 6, 35, 53, 67, 29, 63, 46, 34, 45, 0)
s = 36: (0, 12, 8, 32, 56, 68, 23, 106, 25, 26, 24, 0)
s = 37: (0, 11, 8, 61, 62, 58, 26, 99, 40, 45, 27, 0)
s = 38: (0, 10, 10, 37, 60, 85, 22, 102, 33, 24, 28, 0)
s = 39: (0, 10, 11, 49, 46, 94, 33, 72, 50, 26, 19, 0)
s = 40: (0, 13, 12, 48, 95, 79, 15, 65, 43, 31, 21, 0)
s = 41: (0, 13, 6, 27, 35, 98, 26, 161, 46, 35, 33, 0)
s = 42: (0, 12, 10, 30, 40, 73, 29, 71, 34, 31, 29, 0)
s = 43: (0, 12, 11, 43, 51, 69, 14, 73, 37, 38, 29, 0)
s = 44: (0, 11, 19, 29, 56, 47, 22, 102, 23, 33, 21, 0)
s = 45: (0, 15, 9, 24, 82, 82, 20, 67, 28, 22, 36, 0)
s = 46: (0, 11, 7, 40, 46, 74, 15, 77, 39, 36, 41, 0)
s = 47: (0, 15, 10, 42, 37, 65, 17, 77, 37, 39, 47, 0)
s = 48: (0, 8, 10, 41, 55, 58, 16, 101, 24, 47, 33, 0)
s = 49: (0, 14, 8, 33, 71, 45, 37, 58, 29, 38, 38, 0)
s = 50: (0, 12, 9, 40, 42, 54, 25, 135, 31, 40, 29, 0)
s = 51: (0, 15, 8, 62, 60, 53, 23, 83, 48, 54, 45, 0)
s = 52: (0, 13, 6, 41, 44, 60, 31, 75, 40, 31, 24, 0)
s = 53: (0, 8, 9, 38, 67, 45, 14, 96, 29, 51, 43, 0)
s = 54: (0, 7, 11, 65, 104, 38, 13, 130, 59, 28, 45, 0)
s = 55: (0, 14, 11, 38, 53, 104, 15, 118, 25, 31, 59, 0)
s = 56: (0, 14, 15, 47, 68, 75, 19, 96, 30, 56, 22, 0)
s = 57: (0, 9, 6, 30, 51, 67, 20, 80, 32, 50, 36, 0)
s = 58: (0, 10, 9, 28, 57, 80, 16, 69, 60, 42, 37, 0)
s = 59: (0, 11, 7, 48, 78, 88, 20, 97, 55, 37, 24, 0)
s = 60: (0, 14, 16, 40, 63, 42, 20, 76, 22, 35, 18, 0)
s = 61: (0, 9, 12, 54, 72, 91, 17, 133, 22, 33, 32, 0)
s = 62: (0, 11, 17, 38, 39, 52, 29, 146, 29, 23, 29, 0)
s = 63: (0, 11, 9, 42, 57, 69, 23, 157, 41, 33, 29, 0)
s = 64: (0, 18, 11, 41, 64, 94, 19, 82, 44, 41, 39, 0)
s = 65: (0, 14, 9, 24, 33, 57, 25, 61, 40, 21, 39, 0)
s = 66: (0, 10, 9, 37, 94, 82, 30, 97, 28, 40, 41, 0)
s = 67: (0, 17, 8, 49, 60, 55, 26, 101, 56, 44, 35, 0)
s = 68: (0, 8, 8, 48, 78, 79, 34, 75, 65, 19, 17, 0)
s = 69: (0, 13, 6, 25, 46, 47, 22, 72, 49, 47, 44, 0)
s = 70: (0, 11, 13, 28, 80, 61, 21, 82, 65, 31, 28, 0)
s = 71: (0, 12, 9, 65, 106, 77, 16, 111, 23, 34, 40, 0)
s = 72: (0, 9, 14, 26, 81, 97, 29, 65, 45, 36, 33, 0)
s = 73: (0, 12, 10, 34, 52, 96, 17, 86, 34, 39, 32, 0)
s = 74: (0, 7, 9, 42, 56, 50, 26, 114, 63, 58, 37, 0)
s = 75: (0, 9, 8, 34, 68, 95, 19, 83, 38, 31, 23, 0)
s = 76: (0, 12, 7, 49, 58, 123, 31, 104, 46, 60, 33, 0)
s = 77: (0, 17, 9, 28, 61, 56, 32, 80, 42, 43, 16, 0)
s = 78: (0, 10, 12, 30, 95, 52, 25, 95, 46, 37, 42, 0)
s = 79: (0, 11, 7, 27, 93, 60, 13, 155, 45, 30, 39, 0)
s = 80: (0, 10, 11, 35, 57, 59, 16, 151, 42, 21, 37, 0)
s = 81: (0, 15, 12, 29, 56, 68, 21, 100, 47, 52, 58, 0)
s = 82: (0, 12, 6, 26, 81, 50, 22, 65, 20, 37, 23, 0)
s = 83: (0, 20, 6, 64, 73, 75, 22, 83, 28, 41, 31, 0)
s = 84: (0, 10, 9, 41, 60, 77, 39, 109, 36, 28, 27, 0)
s = 85: (0, 11, 9, 28, 60, 74, 20, 56, 50, 34, 29, 0)
s = 86: (0, 13, 12, 33, 71, 65, 23, 72, 41, 29, 22, 0)
s = 87: (0, 7, 12, 25, 48, 38, 32, 123, 61, 31, 35, 0)
s = 88: (0, 23, 10, 35, 68, 60, 25, 96, 20, 52, 22, 0)
s = 89: (0, 15, 10, 49, 51, 49, 13, 76, 35, 26, 32, 0)
s = 90: (0, 10, 12, 47, 67, 37, 22, 78, 38, 47, 31, 0)
s = 91: (0, 10, 8, 41, 36, 97, 30, 129, 46, 25, 35, 0)
s = 92: (0, 14, 11, 58, 59, 82, 21, 91, 32, 22, 32, 0)
s = 93: (0, 18, 8, 35, 71, 90, 15, 147, 39, 56, 31, 0)
s = 94: (0, 18, 12, 43, 56, 76, 20, 72, 27, 23, 38, 0)
s = 95: (0, 9, 7, 57, 65, 93, 26, 107, 44, 32, 20, 0)
s = 96: (0, 12, 14, 55, 73, 104, 27, 119, 31, 39, 26, 0)
s = 97: (0, 16, 7, 24, 53, 66, 31, 81, 33, 31, 19, 0)
s = 98: (0, 9, 13, 32, 66, 104, 16, 67, 23, 33, 21, 0)
s = 99: (0, 10, 7, 29, 63, 48, 18, 83, 32, 42, 25, 0)
s = 100: (0, 12, 9, 63, 81, 87, 34, 124, 22, 46, 20, 0)
s = 101: (0, 10, 12, 49, 86, 47, 27, 95, 34, 29, 18, 0)
s = 102: (0, 9, 6, 50, 74, 52, 21, 68, 52, 37, 29, 0)
s = 103: (0, 11, 14, 54, 75, 40, 19, 98, 30, 33, 46, 0)
s = 104: (0, 10, 8, 58, 80, 41, 20, 74, 26, 37, 44, 0)
s = 105: (0, 14, 6, 59, 58, 53, 20, 182, 20, 32, 34, 0)
s = 106: (0, 18, 6, 37, 62, 73, 16, 89, 40, 27, 46, 0)
s = 107: (0, 8, 15, 33, 37, 48, 16, 121, 48, 56, 44, 0)
s = 108: (0, 12, 14, 70, 41, 47, 29, 108, 43, 25, 30, 0)
s = 109: (0, 15, 8, 59, 62, 41, 22, 54, 26, 47, 23, 0)
s = 110: (0, 16, 7, 70, 58, 81, 21, 105, 32, 53, 49, 0)
s = 111: (0, 9, 13, 26, 92, 62, 35, 109, 35, 25, 36, 0)
s = 112: (0, 8, 13, 38, 74, 58, 17, 105, 27, 60, 27, 0)
s = 113: (0, 9, 14, 31, 58, 78, 22, 80, 30, 35, 39, 0)
s = 114: (0, 9, 15, 23, 77, 90, 20, 158, 32, 42, 30, 0)
s = 115: (0, 19, 8, 41, 90, 55, 42, 84, 44, 35, 21, 0)
s = 116: (0, 9, 10, 46, 55, 53, 30, 102, 31, 33, 17, 0)
s = 117: (0, 7, 7, 31, 54, 106, 31, 109, 29, 51, 28, 0)
s = 118: (0, 12, 7, 28, 54, 79, 15, 115, 34, 46, 29, 0)
s = 119: (0, 15, 9, 43, 63, 37, 15, 72, 27, 48, 31, 0)
s = 120: (0, 8, 11, 29, 83, 55, 25, 139, 24, 48, 23, 0)
s = 121: (0, 18, 14, 34, 97, 81, 20, 107, 26, 33, 18, 0)
s = 122: (0, 13, 11, 32, 90, 78, 19, 63, 50, 26, 20, 0)
s = 123: (0, 16, 9, 42, 51, 46, 17, 120, 31, 30, 40, 0)
s = 124: (0, 14, 10, 29, 54, 66, 19, 79, 27, 40, 18, 0)
s = 125: (0, 10, 11, 29, 74, 61, 21, 80, 39, 47, 28, 0)
s = 126: (0, 15, 8, 50, 73, 75, 20, 89, 49, 25, 31, 0)
s = 127: (0, 8, 15, 26, 43, 68, 18, 165, 41, 28, 27, 0)
s = 128: (0, 9, 9, 39, 72, 45, 29, 115, 27, 25, 32, 0)
s = 129: (0, 13, 17, 36, 59, 45, 34, 126, 27, 34, 49, 0)
s = 130: (0, 10, 10, 32, 75, 62, 33, 83, 27, 44, 38, 0)
s = 131: (0, 7, 9, 70, 86, 107, 20, 128, 52, 31, 47, 0)
s = 132: (0, 18, 14, 49, 71, 59, 17, 56, 49, 29, 29, 0)
s = 133: (0, 11, 15, 32, 66, 51, 29, 116, 32, 46, 19, 0)
s = 134: (0, 14, 16, 44, 59, 88, 27, 138, 28, 25, 24, 0)
s = 135: (0, 11, 9, 42, 50, 60, 23, 107, 42, 43, 20, 0)
s = 136: (0, 8, 11, 23, 42, 39, 33, 66, 55, 45, 26, 0)
s = 137: (0, 9, 12, 54, 45, 52, 29, 141, 35, 27, 28, 0)
s = 138: (0, 9, 15, 27, 76, 81, 33, 73, 27, 20, 25, 0)
s = 139: (0, 16, 8, 38, 77, 73, 25, 75, 24, 56, 24, 0)
s = 140: (0, 11, 11, 49, 60, 59, 23, 64, 35, 34, 27, 0)
s = 141: (0, 18, 8, 31, 47, 57, 24, 106, 27, 33, 35, 0)
s = 142: (0, 15, 11, 33, 46, 97, 23, 109, 28, 28, 30, 0)
s = 143: (0, 17, 12, 28, 56, 126, 18, 100, 45, 22, 39, 0)
s = 144: (0, 9, 12, 28, 73, 92, 15, 94, 42, 33, 18, 0)
s = 145: (0, 11, 10, 40, 36, 41, 32, 66, 42, 32, 20, 0)
s = 146: (0, 8, 14, 32, 46, 80, 17, 105, 23, 23, 30, 0)
s = 147: (0, 11, 11, 50, 78, 76, 17, 122, 48, 39, 26, 0)
s = 148: (0, 12, 11, 37, 71, 74, 16, 77, 29, 32, 35, 0)
s = 149: (0, 7, 11, 33, 73, 60, 20, 92, 33, 42, 23, 0)
s = 150: (0, 20, 12, 29, 62, 105, 24, 152, 30, 23, 26, 0)
s = 151: (0, 9, 10, 42, 50, 85, 29, 103, 20, 40, 26, 0)
s = 152: (0, 8, 10, 40, 65, 59, 23, 73, 28, 34, 48, 0)
s = 153: (0, 13, 13, 52, 38, 55, 28, 69, 54, 25, 53, 0)
s = 154: (0, 12, 14, 29, 63, 56, 16, 108, 37, 27, 31, 0)
s = 155: (0, 14, 12, 36, 40, 63, 30, 92, 23, 32, 24, 0)
s = 156: (0, 11, 11, 40, 86, 97, 24, 124, 35, 37, 48, 0)
s = 157: (0, 14, 11, 39, 43, 41, 37, 70, 22, 29, 26, 0)
s = 158: (0, 17, 15, 31, 37, 58, 30, 79, 41, 27, 45, 0)
s = 159: (0, 16, 15, 37, 44, 61, 21, 95, 26, 48, 44, 0)
s = 160: (0, 12, 16, 39, 63, 91, 22, 95, 30, 35, 17, 0)
s = 161: (0, 12, 8, 50, 56, 76, 22, 63, 28, 36, 24, 0)
s = 162: (0, 10, 9, 38, 66, 68, 22, 80, 36, 46, 44, 0)
s = 163: (0, 10, 15, 51, 39, 63, 23, 95, 36, 45, 38, 0)
s = 164: (0, 9, 11, 29, 58, 58, 28, 91, 34, 50, 33, 0)
s = 165: (0, 11, 9, 34, 62, 93, 16, 89, 39, 34, 26, 0)
s = 166: (0, 14, 15, 46, 56, 81, 35, 110, 27, 32, 38, 0)
s = 167: (0, 16, 6, 27, 49, 59, 28, 103, 39, 27, 50, 0)
s = 168: (0, 14, 14, 57, 67, 82, 28, 65, 29, 51, 27, 0)
s = 169: (0, 13, 9, 38, 45, 85, 27, 107, 28, 34, 29, 0)
s = 170: (0, 12, 8, 46, 49, 53, 25, 107, 25, 19, 23, 0)
s = 171: (0, 19, 10, 50, 108, 86, 23, 162, 33, 47, 25, 0)
s = 172: (0, 9, 12, 53, 94, 63, 21, 62, 27, 42, 41, 0)
s = 173: (0, 12, 10, 59, 56, 71, 13, 172, 24, 37, 30, 0)
s = 174: (0, 12, 12, 62, 94, 56, 18, 84, 39, 53, 35, 0)
s = 175: (0, 19, 12, 46, 68, 65, 18, 70, 41, 23, 41, 0)
s = 176: (0, 12, 9, 29, 35, 82, 25, 69, 44, 19, 44, 0)
s = 177: (0, 11, 14, 38, 98, 62, 29, 150, 26, 31, 38, 0)
s = 178: (0, 12, 6, 39, 53, 72, 20, 98, 36, 43, 39, 0)
s = 179: (0, 11, 7, 50, 81, 69, 26, 118, 29, 40, 29, 0)
s = 180: (0, 18, 8, 36, 75, 97, 24, 104, 33, 40, 23, 0)
s = 181: (0, 8, 6, 34, 69, 119, 16, 104, 66, 40, 33, 0)
s = 182: (0, 14, 13, 42, 57, 49, 14, 86, 24, 38, 20, 0)
s = 183: (0, 7, 7, 25, 57, 55, 32, 162, 31, 44, 33, 0)
s = 184: (0, 8, 7, 32, 50, 48, 36, 111, 28, 53, 18, 0)
s = 185: (0, 12, 10, 21, 85, 86, 14, 94, 41, 38, 16, 0)
s = 186: (0, 17, 9, 33, 66, 87, 16, 81, 25, 41, 28, 0)
s = 187: (0, 9, 12, 27, 61, 114, 23, 88, 40, 34, 46, 0)
s = 188: (0, 13, 17, 75, 59, 54, 22, 73, 44, 23, 52, 0)
s = 189: (0, 15, 10, 34, 62, 82, 17, 89, 35, 48, 31, 0)
s = 190: (0, 7, 6, 46, 73, 59, 24, 80, 34, 34, 25, 0)
s = 191: (0, 17, 8, 45, 64, 50, 17, 95, 59, 29, 29, 0)
s = 192: (0, 11, 10, 33, 38, 53, 34, 104, 51, 29, 44, 0)
s = 193: (0, 12, 7, 29, 63, 64, 27, 128, 35, 52, 42, 0)
s = 194: (0, 15, 11, 40, 65, 73, 22, 124, 23, 41, 25, 0)
s = 195: (0, 8, 9, 63, 53, 89, 27, 81, 30, 40, 23, 0)
s = 196: (0, 12, 13, 27, 74, 90, 14, 95, 35, 59, 25, 0)
s = 197: (0, 17, 9, 64, 48, 41, 16, 81, 38, 33, 28, 0)
s = 198: (0, 13, 12, 33, 40, 59, 27, 60, 43, 60, 32, 0)
s = 199: (0, 13, 9, 46, 52, 80, 24, 87, 42, 24, 32, 0)
s = 200: (0, 8, 9, 49, 88, 94, 18, 73, 25, 39, 20, 0)
************************************************************************
ES/LS-VALUES:
jobnr.   ES(i)    LS(i)
------------------------------------------------------------------------
  0        0        0
  1        0       59
  2        0       48
  3        0       46
  4        2       50
  5        6       52
  6        2       52
  7        7       56
  8       15       61
  9       18       68
 10       15       68
 11       26       72
************************************************************************
BIG-M-VALUES:
M1 = 44, M2 = 251
************************************************************************
